
  22    4
  10   10   10   10

   0   0   0   0   0   8 2 3 4 5 6 8 12 16 
   4  10  10  10  10   5 21 15 14 10 7 
   5  10  10  10  10   3 11 9 7 
   3  10  10  10  10   4 21 17 14 9 
   7  10  10  10  10   4 19 14 13 11 
   6  10  10  10  10   4 21 20 19 10 
   7  10  10  10  10   3 20 18 13 
   8  10  10  10  10   3 20 19 17 
   4  10  10  10  10   2 19 18 
   8  10  10  10  10   2 18 17 
   7  10  10  10  10   2 18 17 
   4  10  10  10  10   2 19 18 
   5  10  10  10  10   1 17 
   2  10  10  10  10   1 20 
   1  10  10  10  10   1 19 
   8  10  10  10  10   1 17 
  10  10  10  10  10   1 22
   5  10  10  10  10   1 22
  10  10  10  10  10   1 22
   6  10  10  10  10   1 22
   3  10  10  10  10   1 22
   0   0   0   0   0   0 
